benchmarks_vrp/CMT2/no_cluster/CMT2_6.vrp
NAME: CMT2_6
TYPE: CVRP
COMMENT: 835.26 - Cluster Nr.6
DIMENSION: 8
CAPACITY: 140
EDGE_WEIGHT_TYPE: EUC_2D
NODE_COORD_TYPE: TWOD_COORDS
NODE_COORD_SECTION: 
5 10 70
1 30 60
6 9 56
2 15 56
7 26 59
8 22 53
3 40 40
4 17 64
DEPOT_SECTION: 
3
-1
DEMAND_SECTION: 
1 16
2 22
8 28
5 7
6 13
7 29
3 0
4 14
EOF
