benchmarks_vrp/CMT2/no_cluster/CMT2_6.tour
NAME: CMT2_6 solution
TYPE: TOUR
TOUR_SECTION:
3 1 7 4 5 6 2 8 -1
-1
EOF